c Maximum weighted clique instances generated from exactcolors.
c cutoff: 871543.
c A clique of value > scalef (871543) defines an improving stable sets for coloring.
p edge 40 0
n 1 871542
n 2 871542
n 3 871542
n 4 871542
n 5 871542
n 6 871542
n 7 871542
n 8 871542
n 9 871542
n 10 871542
n 11 871542
n 12 871542
n 13 871542
n 14 871542
n 15 871542
n 16 871542
n 17 871542
n 18 871542
n 19 871542
n 20 871542
n 21 871542
n 22 871542
n 23 871542
n 24 871542
n 25 871542
n 26 871542
n 27 871542
n 28 871542
n 29 871542
n 30 871542
n 31 871542
n 32 871542
n 33 871542
n 34 871542
n 35 871542
n 36 871542
n 37 871542
n 38 871542
n 39 871542
n 40 871542
